p cnf 9 25
1 -7 -5 0
-6 -9 -4 0
2 -8 3 0
4 8 7 0
5 9 -3 0
-1 -2 6 0
7 2 9 0
5 4 -3 0
-8 1 6 0
-2 -5 -4 0
-1 -9 3 0
-6 -7 8 0
1 -2 0
3 5 -4 0
5 6 -7 0
8 9 0
-3 5 0
3 -5 0
-3 6 0
-3 8 0
-8 -9 0
-1 -6 -7 0
7 -2 1 0
-2 9 3 0
-3 -5 9 0

